VALUE 1700556
2 207
6 79
9 200
12 25
18 183
20 190
24 95
25 61
28 98
30 193
30 31
31 32
34 188
32 36
38 145
42 144
43 140
46 92
49 88
58 77
60 114
61 118
77 79
79 84
49 84
88 90
90 119
90 92
28 95
2 98
25 112
24 114
60 118
112 119
12 138
139 143
139 140
42 143
144 147
143 145
138 147
144 151
151 153
153 155
155 156
156 157
157 164
164 167
167 169
169 174
174 177
177 179
179 182
179 183
182 187
187 188
188 190
193 202
20 198
198 200
200 201
201 202
6 208
9 209
12 210
18 211
20 212
24 213
28 214
31 215
34 216
36 217
38 218
42 219
43 220
46 221
49 222
58 223

